ITEM = 1..50;
capacity1 = 420;
capacity2 = 420;
capacity3 = 420;
profits = [41, 43, 30, 28, 42, 49, 38, 49, 21, 30, 73, 25, 31, 23, 25, 38, 34, 22, 32, 25, 22, 56, 32, 48, 21, 49, 27, 67, 23, 20, 73, 23, 24, 40, 24, 32, 39, 39, 54, 39, 24, 21, 75, 23, 24, 20, 52, 23, 38, 31];
weights = [83, 37, 48, 18, 89, 45, 47, 44, 67, 73, 78, 16, 82, 14, 20, 43, 84, 26, 22, 44, 12, 68, 76, 65, 12, 42, 37, 71, 33, 10, 84, 17, 56, 41, 15, 71, 76, 95, 76, 74, 64, 32, 79, 32, 34, 52, 98, 23, 33, 62];
